 generated by phonopy                   
   1.00000000000000     
     8.4591150800000001    0.0000000000000000    0.0000000000000000
     0.0000000000000000    8.4952355900000001    0.0000000000000000
     0.0000000000000000    0.0000000000000000    8.4952355900000001
   Cr   N 
    32    32
Direct
  0.2839370331967146  0.0046262635697047  0.0025674633482424
  0.7776650545132355  0.0182789444366378  0.0038115939370513
  0.2563491600122632  0.5075631547841581  0.0168658574974287
  0.7811447717370044  0.5113745978281088  0.0226587965794423
  0.2617054202852742  0.0135462999480254  0.5258227074017725
  0.7561719377637033  0.0008131813721590  0.5256365430712222
  0.2523851524918754  0.5046561863820429  0.5296411527670202
  0.7846359439409269  0.5081421810116780  0.5048043130383277
  0.2688477070356612  0.2795962623983428  0.2783150048382836
  0.7565553903140199  0.2842190319277904  0.2572643323586732
  0.2612088577534593  0.7634017945452811  0.2708531272309571
  0.7665958482488904  0.7832746578019680  0.2660922550436311
  0.2657224937283331  0.2824699369678356  0.7547403177876006
  0.7611974198823575  0.2642454122859590  0.7834848529113003
  0.2524924475553192  0.7832290778241884  0.7841053431520706
  0.7818022161730553  0.7503932015544521  0.7658073303068917
  0.0108460107245989  0.0198640049305112  0.2559945960196757
  0.5033231329477346  0.0169614611857440  0.2539941866101358
  0.0211606990481883  0.5113206402903501  0.2558174512025602
  0.5077685140658446  0.5349770561159986  0.2809116500999238
  0.0225566429490556  0.0208276766493896  0.7623841116965977
  0.5098709797668306  0.0094555345999296  0.7622591969576220
  0.0207672455568684  0.5263628117931560  0.7761146762777287
  0.5253074051541020  0.5349284543295596  0.7735548304000019
  0.0190234820985893  0.2641692138516802  0.0256006295593991
  0.5349446178958672  0.2686398795668339  0.0174445868227124
  0.0099011483627862  0.7535975604926861  0.0022920812352609
  0.5099167737431500  0.7844132567553359  0.0177519716587966
  0.0129551900814135  0.2561938586311285  0.5257477951272662
  0.5184340375678431  0.2802123937919490  0.5140387358011509
  0.0063383544663722  0.7781714399027706  0.5338499679744402
  0.5052678072259056  0.7682166049318297  0.5163674889439349
  0.0119429087132303  0.2650654254846927  0.2662260906301057
  0.5331730983186205  0.2778372468583186  0.2828001714199218
  0.0269069608443431  0.7616521789580801  0.2756543531931115
  0.5147430009878278  0.7778985324136301  0.2680080623946708
  0.0289927043353089  0.2771304922682845  0.7633636906168420
  0.5242984494508960  0.2655147583847466  0.7752359027138169
  0.0346713124865161  0.7674654666226814  0.7554435910323960
  0.5268163018841108  0.7775954650507941  0.7672119729386253
  0.0120950609822401  0.0175133249777559  0.0105602374144809
  0.5009289854484962  0.0304068844912990  0.0147148685142682
  0.0123307802240760  0.5258694247510931  0.0204369888398190
  0.5267163127704535  0.5189382517961079  0.0338558184202995
  0.0230178298175261  0.0020241540735597  0.5100325871305600
  0.5097417194242695  0.0316542622910916  0.5015445731911399
  0.0330018990217695  0.5215142122381025  0.5015397907053440
  0.5091100153094459  0.5005337960369260  0.5047167280619860
  0.2782592253566136  0.2639811530467782  0.0091139896114356
  0.7721555503931725  0.2624229315121553  0.0253681568004822
  0.2606897519336329  0.7819992535326392  0.0048366840978034
  0.7669026612298921  0.7505697332121315  0.0015163944965124
  0.2780733535683524  0.2500610794750600  0.5325124333556346
  0.7576383018582433  0.2739681378846157  0.5320958404598741
  0.2579587660054656  0.7846466810320720  0.5257582431918593
  0.7631864175501093  0.7764488629088930  0.5112044488203367
  0.2671238262244131  0.0332695613776153  0.2660071322098858
  0.7522290237198774  0.0224622762396223  0.2666170379968591
  0.2699651417296636  0.5162361441296284  0.2666562817799374
  0.7838703470065269  0.5351459807288634  0.2613276387801307
  0.2599306770698817  0.0102493053078661  0.7551035770760848
  0.7627939950615001  0.0187715088679212  0.7702833257748907
  0.2560761279680861  0.5065261900631839  0.7736455139964278
  0.7631301281874698  0.5222371498172365  0.7529175989657944
 
  0.00000000E+00  0.00000000E+00  0.00000000E+00
  0.00000000E+00  0.00000000E+00  0.00000000E+00
  0.00000000E+00  0.00000000E+00  0.00000000E+00
  0.00000000E+00  0.00000000E+00  0.00000000E+00
  0.00000000E+00  0.00000000E+00  0.00000000E+00
  0.00000000E+00  0.00000000E+00  0.00000000E+00
  0.00000000E+00  0.00000000E+00  0.00000000E+00
  0.00000000E+00  0.00000000E+00  0.00000000E+00
  0.00000000E+00  0.00000000E+00  0.00000000E+00
  0.00000000E+00  0.00000000E+00  0.00000000E+00
  0.00000000E+00  0.00000000E+00  0.00000000E+00
  0.00000000E+00  0.00000000E+00  0.00000000E+00
  0.00000000E+00  0.00000000E+00  0.00000000E+00
  0.00000000E+00  0.00000000E+00  0.00000000E+00
  0.00000000E+00  0.00000000E+00  0.00000000E+00
  0.00000000E+00  0.00000000E+00  0.00000000E+00
  0.00000000E+00  0.00000000E+00  0.00000000E+00
  0.00000000E+00  0.00000000E+00  0.00000000E+00
  0.00000000E+00  0.00000000E+00  0.00000000E+00
  0.00000000E+00  0.00000000E+00  0.00000000E+00
  0.00000000E+00  0.00000000E+00  0.00000000E+00
  0.00000000E+00  0.00000000E+00  0.00000000E+00
  0.00000000E+00  0.00000000E+00  0.00000000E+00
  0.00000000E+00  0.00000000E+00  0.00000000E+00
  0.00000000E+00  0.00000000E+00  0.00000000E+00
  0.00000000E+00  0.00000000E+00  0.00000000E+00
  0.00000000E+00  0.00000000E+00  0.00000000E+00
  0.00000000E+00  0.00000000E+00  0.00000000E+00
  0.00000000E+00  0.00000000E+00  0.00000000E+00
  0.00000000E+00  0.00000000E+00  0.00000000E+00
  0.00000000E+00  0.00000000E+00  0.00000000E+00
  0.00000000E+00  0.00000000E+00  0.00000000E+00
  0.00000000E+00  0.00000000E+00  0.00000000E+00
  0.00000000E+00  0.00000000E+00  0.00000000E+00
  0.00000000E+00  0.00000000E+00  0.00000000E+00
  0.00000000E+00  0.00000000E+00  0.00000000E+00
  0.00000000E+00  0.00000000E+00  0.00000000E+00
  0.00000000E+00  0.00000000E+00  0.00000000E+00
  0.00000000E+00  0.00000000E+00  0.00000000E+00
  0.00000000E+00  0.00000000E+00  0.00000000E+00
  0.00000000E+00  0.00000000E+00  0.00000000E+00
  0.00000000E+00  0.00000000E+00  0.00000000E+00
  0.00000000E+00  0.00000000E+00  0.00000000E+00
  0.00000000E+00  0.00000000E+00  0.00000000E+00
  0.00000000E+00  0.00000000E+00  0.00000000E+00
  0.00000000E+00  0.00000000E+00  0.00000000E+00
  0.00000000E+00  0.00000000E+00  0.00000000E+00
  0.00000000E+00  0.00000000E+00  0.00000000E+00
  0.00000000E+00  0.00000000E+00  0.00000000E+00
  0.00000000E+00  0.00000000E+00  0.00000000E+00
  0.00000000E+00  0.00000000E+00  0.00000000E+00
  0.00000000E+00  0.00000000E+00  0.00000000E+00
  0.00000000E+00  0.00000000E+00  0.00000000E+00
  0.00000000E+00  0.00000000E+00  0.00000000E+00
  0.00000000E+00  0.00000000E+00  0.00000000E+00
  0.00000000E+00  0.00000000E+00  0.00000000E+00
  0.00000000E+00  0.00000000E+00  0.00000000E+00
  0.00000000E+00  0.00000000E+00  0.00000000E+00
  0.00000000E+00  0.00000000E+00  0.00000000E+00
  0.00000000E+00  0.00000000E+00  0.00000000E+00
  0.00000000E+00  0.00000000E+00  0.00000000E+00
  0.00000000E+00  0.00000000E+00  0.00000000E+00
  0.00000000E+00  0.00000000E+00  0.00000000E+00
  0.00000000E+00  0.00000000E+00  0.00000000E+00
