pymatgen with grid density = 1780 / number of atoms
0
Monkhorst
6 6 6
