 generated by phonopy
   1.000
    8.4591150800000001    0.0000000000000000    0.0000000000000000
    0.0000000000000000    8.4952355900000001    0.0000000000000000
    0.0000000000000000    0.0000000000000000    8.4952355900000001
   Cr   N 
   32   32
Direct
    0.2839370331967140    0.0046262635697079    0.0025674633482426    Cr1
    0.7776650545132375    0.0182789444366403    0.0038115939370504    Cr2
    0.2563491600122651    0.5075631547841559    0.0168658574974262    Cr3
    0.7811447717370010    0.5113745978281052    0.0226587965794451    Cr4
    0.2617054202852740    0.0135462999480255    0.5258227074017693    Cr5
    0.7561719377637051    0.0008131813721599    0.5256365430712210    Cr6
    0.2523851524918738    0.5046561863820436    0.5296411527670236    Cr7
    0.7846359439409291    0.5081421810116801    0.5048043130383286    Cr8
    0.2688477070356591    0.2795962623983437    0.2783150048382839    Cr9
    0.7565553903140215    0.2842190319277906    0.2572643323586746   Cr10
    0.2612088577534562    0.7634017945452783    0.2708531272309563   Cr11
    0.7665958482488893    0.7832746578019686    0.2660922550436333   Cr12
    0.2657224937283297    0.2824699369678344    0.7547403177876010   Cr13
    0.7611974198823550    0.2642454122859581    0.7834848529112978   Cr14
    0.2524924475553199    0.7832290778241903    0.7841053431520713   Cr15
    0.7818022161730548    0.7503932015544522    0.7658073303068900   Cr16
    0.0108460107246005    0.0198640049305089    0.2559945960196769   Cr17
    0.5033231329477346    0.0169614611857428    0.2539941866101367   Cr18
    0.0211606990481877    0.5113206402903514    0.2558174512025567   Cr19
    0.5077685140658411    0.5349770561159992    0.2809116500999225   Cr20
    0.0225566429490567    0.0208276766493914    0.7623841116965958   Cr21
    0.5098709797668314    0.0094555345999282    0.7622591969576203   Cr22
    0.0207672455568684    0.5263628117931552    0.7761146762777290   Cr23
    0.5253074051541018    0.5349284543295624    0.7735548303999986   Cr24
    0.0190234820985917    0.2641692138516797    0.0256006295593972   Cr25
    0.5349446178958651    0.2686398795668369    0.0174445868227119   Cr26
    0.0099011483627897    0.7535975604926850    0.0022920812352628   Cr27
    0.5099167737431473    0.7844132567553371    0.0177519716587955   Cr28
    0.0129551900814106    0.2561938586311251    0.5257477951272679   Cr29
    0.5184340375678413    0.2802123937919486    0.5140387358011517   Cr30
    0.0063383544663739    0.7781714399027712    0.5338499679744368   Cr31
    0.5052678072259029    0.7682166049318324    0.5163674889439365   Cr32
    0.0119429087132301    0.2650654254846899    0.2662260906301032     N1
    0.5331730983186170    0.2778372468583211    0.2828001714199195     N2
    0.0269069608443430    0.7616521789580794    0.2756543531931113     N3
    0.5147430009878291    0.7778985324136267    0.2680080623946687     N4
    0.0289927043353079    0.2771304922682827    0.7633636906168410     N5
    0.5242984494508949    0.2655147583847442    0.7752359027138180     N6
    0.0346713124865136    0.7674654666226830    0.7554435910323952     N7
    0.5268163018841125    0.7775954650507970    0.7672119729386243     N8
    0.0120950609822427    0.0175133249777547    0.0105602374144836     N9
    0.5009289854484993    0.0304068844912973    0.0147148685142708    N10
    0.0123307802240765    0.5258694247510965    0.0204369888398172    N11
    0.5267163127704521    0.5189382517961078    0.0338558184203005    N12
    0.0230178298175233    0.0020241540735582    0.5100325871305617    N13
    0.5097417194242703    0.0316542622910890    0.5015445731911400    N14
    0.0330018990217687    0.5215142122381045    0.5015397907053413    N15
    0.5091100153094446    0.5005337960369247    0.5047167280619874    N16
    0.2782592253566161    0.2639811530467781    0.0091139896114376    N17
    0.7721555503931716    0.2624229315121586    0.0253681568004832    N18
    0.2606897519336343    0.7819992535326400    0.0048366840978067    N19
    0.7669026612298916    0.7505697332121282    0.0015163944965119    N20
    0.2780733535683503    0.2500610794750591    0.5325124333556353    N21
    0.7576383018582413    0.2739681378846162    0.5320958404598732    N22
    0.2579587660054685    0.7846466810320700    0.5257582431918593    N23
    0.7631864175501089    0.7764488629088934    0.5112044488203386    N24
    0.2671238262244119    0.0332695613776135    0.2660071322098868    N25
    0.7522290237198785    0.0224622762396213    0.2666170379968599    N26
    0.2699651417296625    0.5162361441296265    0.2666562817799393    N27
    0.7838703470065286    0.5351459807288634    0.2613276387801293    N28
    0.2599306770698787    0.0102493053078679    0.7551035770760843    N29
    0.7627939950615023    0.0187715088679221    0.7702833257748907    N30
    0.2560761279680891    0.5065261900631850    0.7736455139964278    N31
    0.7631301281874717    0.5222371498172341    0.7529175989657924    N32
